
x = 200;
y = 400;
c = 80000;
n = 486;
w = [2601 2601 16 16 16 16 16 16 16 16 16 16 16 16 9 1 1 1 1681 400 400 1 1 1 1 1 1 1 1 1 1 1 1 1 1 1 1 1 1 1 1 100 100 100 100 100 36 16 4 4 49 49 49 49 49 49 49 49 49 49 4 4 4 1 1 1089 1089 1089 1089 784 25 25 25 25 25 9 4 1 1 169 169 81 16 16 1 1 1 1 289 16 16 16 16 1 1 1 1 225 81 36 9 9 169 1 1 1 1 1 1 1 1 1 1 1 1 1 1444 400 324 4 4 4 4 4 4 4 4 4 144 144 144 144 144 1 1 1 1 1 1 1 1 1 1 1 1 3721 81 81 81 81 81 81 49 4 4 4 1 1 5329 9 9 9 9 9 9 9 9 9 9 9 9 9 9 9 9 9 9 9 9 9 9 9 9 1 1 1 12996 9 9 9 9 9 9 9 9 9 9 9 9 36 36 36 25 1 1 1 1 1 4096 16 16 16 16 16 16 16 16 16 16 16 16 16 16 16 16 169 25 25 9 4 1 1 324 324 324 25 25 25 9 4 1 1 3136 1156 484 144 100 4 4 4 4 4 3136 1936 144 144 144 64 16 16 324 2809 2809 2500 9 9 9 9 9 9 9 9 9 9 9 9 9 9 9 9 4 1 1 16 16 16 16 16 16 16 16 16 16 16 16 16 1 1 1 1 4 4 1 1 441 441 441 196 49 49 441 64 64 25 9 4 1 1 64 64 64 64 64 4 4 4 4 169 16 16 16 1 1 1 1 1 1 1 1 1 1 1 1 1 1 1 1 1 441 324 9 9 9 9 9 9 529 256 49 49 4 4 4 1 1 4 1 1 324 36 36 36 400 16 16 16 16 16 1 1 1 1 1 1 1 1 1 1 1 1 1 1 1 1 1 1 1 1 1 1 1 529 529 400 9 9 9 9 9 9 4 1 1 4 4 4 4 4 4 4 4 4 64 25 9 4 1 1 64 25 9 4 1 1 1296 100 100 100 36 16 4 4 2116 1024 196 196 16 16 16 4 4 25 1 1 1 1 1 25 289 49 49 9 9 1 1 1 225 4 4 4 4 4 4 4 1 1 9 9 36 36 25 1 1 1 1 1];
p = [2601 2601 16 16 16 16 16 16 16 16 16 16 16 16 9 1 1 1 1681 400 400 1 1 1 1 1 1 1 1 1 1 1 1 1 1 1 1 1 1 1 1 100 100 100 100 100 36 16 4 4 49 49 49 49 49 49 49 49 49 49 4 4 4 1 1 1089 1089 1089 1089 784 25 25 25 25 25 9 4 1 1 169 169 81 16 16 1 1 1 1 289 16 16 16 16 1 1 1 1 225 81 36 9 9 169 1 1 1 1 1 1 1 1 1 1 1 1 1 1444 400 324 4 4 4 4 4 4 4 4 4 144 144 144 144 144 1 1 1 1 1 1 1 1 1 1 1 1 3721 81 81 81 81 81 81 49 4 4 4 1 1 5329 9 9 9 9 9 9 9 9 9 9 9 9 9 9 9 9 9 9 9 9 9 9 9 9 1 1 1 12996 9 9 9 9 9 9 9 9 9 9 9 9 36 36 36 25 1 1 1 1 1 4096 16 16 16 16 16 16 16 16 16 16 16 16 16 16 16 16 169 25 25 9 4 1 1 324 324 324 25 25 25 9 4 1 1 3136 1156 484 144 100 4 4 4 4 4 3136 1936 144 144 144 64 16 16 324 2809 2809 2500 9 9 9 9 9 9 9 9 9 9 9 9 9 9 9 9 4 1 1 16 16 16 16 16 16 16 16 16 16 16 16 16 1 1 1 1 4 4 1 1 441 441 441 196 49 49 441 64 64 25 9 4 1 1 64 64 64 64 64 4 4 4 4 169 16 16 16 1 1 1 1 1 1 1 1 1 1 1 1 1 1 1 1 1 441 324 9 9 9 9 9 9 529 256 49 49 4 4 4 1 1 4 1 1 324 36 36 36 400 16 16 16 16 16 1 1 1 1 1 1 1 1 1 1 1 1 1 1 1 1 1 1 1 1 1 1 1 529 529 400 9 9 9 9 9 9 4 1 1 4 4 4 4 4 4 4 4 4 64 25 9 4 1 1 64 25 9 4 1 1 1296 100 100 100 36 16 4 4 2116 1024 196 196 16 16 16 4 4 25 1 1 1 1 1 25 289 49 49 9 9 1 1 1 225 4 4 4 4 4 4 4 1 1 9 9 36 36 25 1 1 1 1 1];
s = [51 51 4 4 4 4 4 4 4 4 4 4 4 4 3 1 1 1 41 20 20 1 1 1 1 1 1 1 1 1 1 1 1 1 1 1 1 1 1 1 1 10 10 10 10 10 6 4 2 2 7 7 7 7 7 7 7 7 7 7 2 2 2 1 1 33 33 33 33 28 5 5 5 5 5 3 2 1 1 13 13 9 4 4 1 1 1 1 17 4 4 4 4 1 1 1 1 15 9 6 3 3 13 1 1 1 1 1 1 1 1 1 1 1 1 1 38 20 18 2 2 2 2 2 2 2 2 2 12 12 12 12 12 1 1 1 1 1 1 1 1 1 1 1 1 61 9 9 9 9 9 9 7 2 2 2 1 1 73 3 3 3 3 3 3 3 3 3 3 3 3 3 3 3 3 3 3 3 3 3 3 3 3 1 1 1 114 3 3 3 3 3 3 3 3 3 3 3 3 6 6 6 5 1 1 1 1 1 64 4 4 4 4 4 4 4 4 4 4 4 4 4 4 4 4 13 5 5 3 2 1 1 18 18 18 5 5 5 3 2 1 1 56 34 22 12 10 2 2 2 2 2 56 44 12 12 12 8 4 4 18 53 53 50 3 3 3 3 3 3 3 3 3 3 3 3 3 3 3 3 2 1 1 4 4 4 4 4 4 4 4 4 4 4 4 4 1 1 1 1 2 2 1 1 21 21 21 14 7 7 21 8 8 5 3 2 1 1 8 8 8 8 8 2 2 2 2 13 4 4 4 1 1 1 1 1 1 1 1 1 1 1 1 1 1 1 1 1 21 18 3 3 3 3 3 3 23 16 7 7 2 2 2 1 1 2 1 1 18 6 6 6 20 4 4 4 4 4 1 1 1 1 1 1 1 1 1 1 1 1 1 1 1 1 1 1 1 1 1 1 1 23 23 20 3 3 3 3 3 3 2 1 1 2 2 2 2 2 2 2 2 2 8 5 3 2 1 1 8 5 3 2 1 1 36 10 10 10 6 4 2 2 46 32 14 14 4 4 4 2 2 5 1 1 1 1 1 5 17 7 7 3 3 1 1 1 15 2 2 2 2 2 2 2 1 1 3 3 6 6 5 1 1 1 1 1];

